sat
(model 
  (define-fun q1 () Quantifier
    one)
  (define-fun arg1_2 () Binding
    bind_mouse)
  (define-fun arg2_2 () Binding
    bind_diningtable)
  (define-fun r2 () Rels
    within)
  (define-fun arg1_1 () Binding
    bind_x1)
  (define-fun op1 () Ops
    opor)
  (define-fun n1 () IfNeg
    no)
  (define-fun n2 () IfNeg
    no)
  (define-fun arg2_1 () Binding
    bind_keyboard)
  (define-fun r1 () Rels
    labelOf)
)
